192
Lattice="10.527889385098465 -0.0003599780379358831 0.03886028790517381 -0.00040451918657787234 11.32754256536816 -0.0012962377430990645 0.03770056891347799 -0.002224297694077069 10.195366869672343" Properties=species:S:1:pos:R:3 ensemble_source="ANI-1xnr 0 K constant-pressure enthalpy relaxation" target_pressure_GPa=20.0 pressure_GPa=20.00216203598068 relaxation_fmax_eV_A=0.0085426401304048 relaxation_max_deviatoric_GPa=0.26405207764068406 pbc="T T T"
C        1.10199644       2.04382622       1.25133818
C        2.53937545       2.13733231       1.22367326
C        4.17098275       4.87554672       1.27957269
C        2.73357662       4.96890986       1.30752717
C        4.18056392       0.78677650       3.82903835
C        2.74316719       0.69326829       3.85670257
C        1.11137465       3.61882575       3.80015455
C        2.54877908       3.52546239       3.77220189
C        6.36593537       2.04364456       1.27076885
C        7.80334670       2.13715226       1.24310486
C        9.43492920       4.87536825       1.29900208
C        7.99753003       4.96872968       1.32695804
C        9.44450439       0.78659680       3.84846993
C        8.00713578       0.69308835       3.87613496
C        6.37532209       3.61864699       3.81958578
C        7.81269825       3.52528318       3.79163114
C        1.10179222       7.70759562       1.25069119
C        2.53919163       7.80110356       1.22302633
C        4.17078371      10.53932540       1.27892331
C        2.73336489      10.63268138       1.30687823
C        4.18036447       6.45054583       3.82839207
C        2.74296075       6.35704021       3.85605412
C        1.11117211       9.28259869       3.79950638
C        2.54859118       9.18923523       3.77155481
C        6.36574050       7.70741957       1.27011980
C        7.80312966       7.80092463       1.24245618
C        9.43472319      10.53914246       1.29835373
C        7.99732694      10.63250056       1.32631035
C        9.44430591       6.45036975       3.84782250
C        8.00694553       6.35685935       3.87548782
C        6.37511751       9.28241991       3.81893876
C        7.81250204       9.18905549       3.79098191
C        1.12084440       2.04271313       6.34902113
C        2.55824423       2.13622027       6.32135823
C        4.18983487       4.87443375       6.37725658
C        2.75241369       4.96779817       6.40520991
C        4.19941566       0.78566187       8.92672649
C        2.76201264       0.69215626       8.95438605
C        1.13022335       3.61771373       8.89784062
C        2.56763818       3.52435049       8.86988583
C        6.38479135       2.04253211       6.36845088
C        7.82215454       2.13603910       6.34078563
C        9.45377407       4.87425375       6.39668673
C        8.01639734       4.96761839       6.42464300
C        9.46335872       0.78548169       8.94615388
C        8.02595324       0.69197709       8.97381665
C        6.39417077       3.61753401       8.91726908
C        7.83157943       3.52417063       8.88931678
C        1.12064420       7.70648333       6.34837532
C        2.55803770       7.79999212       6.32071008
C        4.18963348      10.53820630       6.37661198
C        2.75221102      10.63156985       6.40456222
C        4.19921020       6.44943157       8.92607350
C        2.76180506       6.35592840       8.95373861
C        1.13002232       9.28148628       8.89719032
C        2.56742977       9.18812233       8.86923814
C        6.38459237       7.70630512       6.36780175
C        7.82196082       7.79981096       6.34013889
C        9.45357673      10.53802813       6.39604010
C        8.01616827      10.63139022       6.42399273
C        9.46315947       6.44925274       8.94550482
C        8.02573655       6.35574940       8.97316685
C        6.39396896       9.28130839       8.91661807
C        7.83136276       9.18794270       8.88866765
H        0.65912102       3.02492235       1.27229867
H        0.82495573       1.49210102       2.13675518
H        0.76846621       1.50608526       0.37888663
H        4.61366979       5.85673011       1.25848301
H        4.50483963       4.33783207       2.15194816
H        4.44785526       4.32386999       0.39407589
H        4.51409358       1.32451529       4.70149013
H        4.62343991      -0.19432195       3.80807764
H        4.45760405       1.33849939       2.94362259
H        0.83450331       4.17050366       4.68565414
H        0.66868766       2.63764187       3.82124672
H        0.77751818       4.15654001       2.92778094
H        5.92306488       3.02474344       1.29172862
H        6.08890094       1.49192143       2.15618477
H        6.03241193       1.50590504       0.39831723
H        9.87761432       5.85655009       1.27791263
H        9.76878491       4.33765239       2.17137869
H        9.71179906       4.32368993       0.41350569
H        9.77803773       1.32433573       4.72091967
H        9.88738551      -0.19450469       3.82750809
H        9.72154817       1.33831990       2.96305185
H        6.09844768       4.17032345       4.70508312
H        5.93263187       2.63746080       3.84067692
H        6.04146176       4.15636031       2.94721033
H        0.65891598       8.68869652       1.27165063
H        0.82475477       7.15587351       2.13610546
H        0.76826359       7.16985676       0.37823925
H        4.61346610      11.52049860       1.25783526
H        4.50463861      10.00160264       2.15130221
H        4.44765311       9.98764041       0.39342672
H        4.51389193       6.98828704       4.70084125
H        4.62323833       5.46945067       3.80742964
H        4.45740204       7.00227223       2.94297377
H        0.83430159       9.83427471       4.68500432
H        0.66848421       8.30141231       3.82059837
H        0.77731573       9.82031213       2.92713310
H        5.92286202       8.68851430       1.29108150
H        6.08869698       7.15569224       2.15553736
H        6.03220719       7.16967563       0.39766799
H        9.87741192      11.52032151       1.27726495
H        9.76858233      10.00142340       2.17073115
H        9.71159704       9.98746014       0.41285722
H        9.77783435       6.98810570       4.72027065
H        9.88718239       5.46927012       3.82685990
H        9.72134594       7.00209101       2.96240379
H        6.09824591       9.83409445       4.70443316
H        5.93242994       8.30123173       3.84002776
H        6.04126108       9.82013130       2.94656365
H        0.67797017       3.02381107       6.36998261
H        0.84380623       1.49098888       7.23443991
H        0.78731680       1.50497319       5.47657099
H        4.63252080       5.85561964       6.35616709
H        4.52369020       4.33671944       7.24963190
H        4.46670553       4.32275711       5.49175934
H        4.53294430       1.32340215       9.79917250
H        4.64228977      -0.19543394       8.90576186
H        4.47645420       1.33738967       8.04130419
H        0.85335349       4.16939035       9.78333733
H        0.68753741       2.63652998       8.91893069
H        0.79636911       4.15542742       8.02546402
H        5.94191432       3.02363125       6.38941253
H        6.10775114       1.49080885       7.25386903
H        6.05126151       1.50479361       5.49600234
H        9.89646538       5.85543940       6.37559733
H        9.78763501       4.33653994       7.26906219
H        9.73064907       4.32257767       5.51118960
H        9.79688846       1.32322303       9.81860411
H        9.90623588      -0.19561665       8.92519267
H        9.74039909       1.33721027       8.06073313
H        6.11729706       4.16921104       9.80276752
H        5.95148180       2.63634993       8.93836061
H        6.06031179       4.15524718       8.04489547
H        0.67776754       8.68758439       6.36933463
H        0.84360486       7.15476191       7.23379013
H        0.78711453       7.16874452       5.47592291
H        4.63231833      11.51938943       6.35551776
H        4.52348732      10.00049245       7.24898220
H        4.46650353       9.98652899       5.49110980
H        4.53274205       6.98717630       9.79852730
H        4.64208862       5.46833832       8.90511294
H        4.47625306       7.00116038       8.04065710
H        0.85315089       9.83316367       9.78269013
H        0.68733567       8.30030030       8.91828174
H        0.79616563       9.81919948       8.02481553
H        5.94171048       8.68740397       6.38876467
H        6.10754772       7.15457973       7.25322181
H        6.05105867       7.16856496       5.49535499
H        9.89626154      11.51920989       6.37494818
H        9.78743183      10.00031075       7.26841461
H        9.73044740       9.98634895       5.51054049
H        9.79668607       6.98699578       9.81795739
H        9.90603335       5.46815867       8.92454406
H        9.74019651       7.00098010       8.06008728
H        6.11709460       9.83298344       9.80211944
H        5.95127973       8.30011930       8.93771280
H        6.06011026       9.81901921       8.04424904
N        3.69374751       2.13849327       1.31418599
N        1.57924118       4.97072008       1.21697764
N        1.58882840       0.69210641       3.76619281
N        3.70311982       3.52365217       3.86275191
N        8.95766598       2.13831401       1.33361404
N        6.84317342       4.97054067       1.23640673
N        6.85275294       0.69192673       3.78562153
N        8.96708504       3.52347184       3.88218336
N        3.69352874       7.80226540       1.31353623
N        1.57904621      10.63449257       1.21633025
N        1.58862768       6.35587832       3.76554442
N        3.70290296       9.18742342       3.86210260
N        8.95747888       7.80208504       1.33296630
N        6.84297336      10.63431056       1.23575869
N        6.85253687       6.35569779       3.78497197
N        8.96687731       9.18724315       3.88153482
N        3.71258097       2.13738159       6.41186791
N        1.59810123       4.96960749       6.31466212
N        1.60768182       0.69099455       8.86387679
N        3.72196196       3.52253993       8.96043378
N        8.97655574       2.13720158       6.43130080
N        6.86201044       4.96942868       6.33408887
N        6.87162945       0.69081446       8.88330637
N        8.98590765       3.52235917       8.97986456
N        3.71238097       7.80115324       6.41121995
N        1.59789889      10.63338045       6.31401397
N        1.60748623       6.35476727       8.86322902
N        3.72176482       9.18631204       8.95978755
N        8.97634543       7.80097408       6.43065158
N        6.86183280      10.63320034       6.33344387
N        6.87144064       6.35458714       8.88265964
N        8.98571926       9.18613047       8.97921731
